%NProcShared=2
%Chk=h2o_uhf_sph
#n UHF/cc-pVDZ gfinput IOP(6/7=3)

UHF/cc-pVDZ H2O

0 1
H    0.0000000000       -0.8901392951        0.5586943229
O    0.0000000000        0.0000000000       -0.0703939342
H    0.0000000000        0.8901392951        0.5586943229

